NAME : p20
COMMENT : ""
TYPE : MDVRP
VEHICLES : 30
DIMENSION : 246
EDGE_WEIGHT_TYPE : EUC_2D
CAPACITY : 60
VEHICLES_MAX_DISTANCE : 180
NODE_COORD_SECTION
1      0      0
2      110    0
3      110    110
4      0      110
5      -110   110
6      -110   0
7      -10    -10
8      -10    0
9      -10    10
10     0      -10
11     0      10
12     10     -10
13     10     0
14     10     10
15     -20    -20
16     -20    0
17     -20    20
18     0      -20
19     0      20
20     20     -20
21     20     0
22     20     20
23     -30    -30
24     -30    0
25     -30    30
26     0      -30
27     0      30
28     30     -30
29     30     0
30     30     30
31     -40    -40
32     -40    0
33     -40    40
34     0      -40
35     0      40
36     40     -40
37     40     0
38     40     40
39     -50    -50
40     -50    0
41     -50    50
42     0      -50
43     0      50
44     50     -50
45     50     0
46     50     50
47     100    -10
48     100    0
49     100    10
50     110    -10
51     110    10
52     120    -10
53     120    0
54     120    10
55     90     -20
56     90     0
57     90     20
58     110    -20
59     110    20
60     130    -20
61     130    0
62     130    20
63     80     -30
64     80     0
65     80     30
66     110    -30
67     110    30
68     140    -30
69     140    0
70     140    30
71     70     -40
72     70     0
73     70     40
74     110    -40
75     110    40
76     150    -40
77     150    0
78     150    40
79     60     -50
80     60     0
81     60     50
82     110    -50
83     110    50
84     160    -50
85     160    0
86     160    50
87     100    100
88     100    110
89     100    120
90     110    100
91     110    120
92     120    100
93     120    110
94     120    120
95     90     90
96     90     110
97     90     130
98     110    90
99     110    130
100    130    90
101    130    110
102    130    130
103    80     80
104    80     110
105    80     140
106    110    80
107    110    140
108    140    80
109    140    110
110    140    140
111    70     70
112    70     110
113    70     150
114    110    70
115    110    150
116    150    70
117    150    110
118    150    150
119    60     60
120    60     110
121    60     160
122    110    60
123    110    160
124    160    60
125    160    110
126    160    160
127    -10    100
128    -10    110
129    -10    120
130    0      100
131    0      120
132    10     100
133    10     110
134    10     120
135    -20    90
136    -20    110
137    -20    130
138    0      90
139    0      130
140    20     90
141    20     110
142    20     130
143    -30    80
144    -30    110
145    -30    140
146    0      80
147    0      140
148    30     80
149    30     110
150    30     140
151    -40    70
152    -40    110
153    -40    150
154    0      70
155    0      150
156    40     70
157    40     110
158    40     150
159    -50    60
160    -50    110
161    -50    160
162    0      60
163    0      160
164    50     60
165    50     110
166    50     160
167    -120   100
168    -120   110
169    -120   120
170    -110   100
171    -110   120
172    -100   100
173    -100   110
174    -100   120
175    -130   90
176    -130   110
177    -130   130
178    -110   90
179    -110   130
180    -90    90
181    -90    110
182    -90    130
183    -140   80
184    -140   110
185    -140   140
186    -110   80
187    -110   140
188    -80    80
189    -80    110
190    -80    140
191    -150   70
192    -150   110
193    -150   150
194    -110   70
195    -110   150
196    -70    70
197    -70    110
198    -70    150
199    -160   60
200    -160   110
201    -160   160
202    -110   60
203    -110   160
204    -60    60
205    -60    110
206    -60    160
207    -120   -10
208    -120   0
209    -120   10
210    -110   -10
211    -110   10
212    -100   -10
213    -100   0
214    -100   10
215    -130   -20
216    -130   0
217    -130   20
218    -110   -20
219    -110   20
220    -90    -20
221    -90    0
222    -90    20
223    -140   -30
224    -140   0
225    -140   30
226    -110   -30
227    -110   30
228    -80    -30
229    -80    0
230    -80    30
231    -150   -40
232    -150   0
233    -150   40
234    -110   -40
235    -110   40
236    -70    -40
237    -70    0
238    -70    40
239    -160   -50
240    -160   0
241    -160   50
242    -110   -50
243    -110   50
244    -60    -50
245    -60    0
246    -60    50
DEMAND_SECTION
1      0
2      0
3      0
4      0
5      0
6      0
7      12
8      12
9      12
10     12
11     12
12     12
13     12
14     12
15     8
16     8
17     8
18     8
19     8
20     8
21     8
22     8
23     4
24     4
25     4
26     4
27     4
28     4
29     4
30     4
31     2
32     2
33     2
34     2
35     2
36     2
37     2
38     2
39     1
40     1
41     1
42     1
43     1
44     1
45     1
46     1
47     12
48     12
49     12
50     12
51     12
52     12
53     12
54     12
55     8
56     8
57     8
58     8
59     8
60     8
61     8
62     8
63     4
64     4
65     4
66     4
67     4
68     4
69     4
70     4
71     2
72     2
73     2
74     2
75     2
76     2
77     2
78     2
79     1
80     1
81     1
82     1
83     1
84     1
85     1
86     1
87     12
88     12
89     12
90     12
91     12
92     12
93     12
94     12
95     8
96     8
97     8
98     8
99     8
100    8
101    8
102    8
103    4
104    4
105    4
106    4
107    4
108    4
109    4
110    4
111    2
112    2
113    2
114    2
115    2
116    2
117    2
118    2
119    1
120    1
121    1
122    1
123    1
124    1
125    1
126    1
127    12
128    12
129    12
130    12
131    12
132    12
133    12
134    12
135    8
136    8
137    8
138    8
139    8
140    8
141    8
142    8
143    4
144    4
145    4
146    4
147    4
148    4
149    4
150    4
151    2
152    2
153    2
154    2
155    2
156    2
157    2
158    2
159    1
160    1
161    1
162    1
163    1
164    1
165    1
166    1
167    12
168    12
169    12
170    12
171    12
172    12
173    12
174    12
175    8
176    8
177    8
178    8
179    8
180    8
181    8
182    8
183    4
184    4
185    4
186    4
187    4
188    4
189    4
190    4
191    2
192    2
193    2
194    2
195    2
196    2
197    2
198    2
199    1
200    1
201    1
202    1
203    1
204    1
205    1
206    1
207    12
208    12
209    12
210    12
211    12
212    12
213    12
214    12
215    8
216    8
217    8
218    8
219    8
220    8
221    8
222    8
223    4
224    4
225    4
226    4
227    4
228    4
229    4
230    4
231    2
232    2
233    2
234    2
235    2
236    2
237    2
238    2
239    1
240    1
241    1
242    1
243    1
244    1
245    1
246    1
VEHICLES_DEPOT_SECTION
1      1
2      1
3      1
4      1
5      1
6      2
7      2
8      2
9      2
10     2
11     3
12     3
13     3
14     3
15     3
16     4
17     4
18     4
19     4
20     4
21     5
22     5
23     5
24     5
25     5
26     6
27     6
28     6
29     6
30     6
DEPOT_SECTION
1
2
3
4
5
6
EOF
